% demand
num_movements = 27;
loading_factor = [1300, 1450, 1100, 1300, 1050, 1500, 1450, 1900, 900, 950, 1550, 1800, 1000, 1200, 1150, 1550, 1100, 1450, 800, 1650, 2000, 1100, 1550, 1050, 1400, 1950, 900];
pickup_time = [0, 0, 0, 1, 1, 2, 3, 4, 6, 6, 6, 6, 6, 7, 7, 7, 7, 8, 8, 8, 8, 9, 11, 11, 11, 11, 11];
delivery_time = [3, 6, 6, 2, 6, 3, 6, 6, 7, 7, 7, 8, 7, 8, 8, 8, 8, 11, 11, 11, 11, 11, 12, 12, 12, 12, 12];

% transporter definition
total_capacity = 7000;
num_decks = 3;
capacity = [3000, 1000, 3000];

% ways out of decks
num_ways_out = 1;
paths_out = array3d(decks, ways_out, decks, [
% ways out of deck d1
2, 3, 0, 

% ways out of deck d2
3, 0, 0, 

% ways out of deck d3
0, 0, 0,	

]);

